100
32
19
23
26
12
4
32
22
31
29
21
11
11
13
14
2
12
23
24
1
16
31
24
7
23
12
16
1
11
25
20
17
22
21
14
7
7
8
27
5
23
14
24
24
20
28
21
31
10
24
24
11
12
4
21
23
32
27
7
28
10
5
32
18
27
5
15
18
27
29
27
32
31
4
6
4
10
1
12
31
10
24
31
15
31
12
23
15
30
25
6
31
28
27
9
29
2
1
9
14
2